n_res = 4;
rc = [ 24, 26, 34, 25 ];
n_tasks = 30;
d = [ 9, 10, 4, 1, 9, 4, 6, 1, 1, 2, 3, 4, 7, 10, 8, 9, 7, 4, 9, 10, 5, 10, 8, 9, 1, 5, 6, 8, 5, 6 ];
rr = [| 24, 24, 24, 24, 24, 24, 24, 24, 24, 24, 24, 24, 24, 24, 24, 24, 24, 24, 24, 24, 24, 24, 24, 24, 24, 24, 24, 24, 24, 24
      | 26, 26, 26, 26, 26, 26, 26, 26, 26, 26, 26, 26, 26, 26, 26, 26, 26, 26, 26, 26, 26, 26, 26, 26, 26, 26, 26, 26, 26, 26
      | 34, 34, 34, 34, 34, 34, 34, 34, 34, 34, 34, 34, 34, 34, 34, 34, 34, 34, 34, 34, 34, 34, 34, 34, 34, 34, 34, 34, 34, 34
      | 25, 25, 25, 25, 25, 25, 25, 25, 25, 25, 25, 25, 25, 25, 25, 25, 25, 25, 25, 25, 25, 25, 25, 25, 25, 25, 25, 25, 25, 25|];
suc = [ { 4, 5, 9 },
       { 5, 21, 22 },
       { 8, 9, 19 },
       { 6, 7, 10 },
       { 6, 13, 16 },
       { 18, 20 },
       { 11, 13, 22 },
       { 13, 14, 27 },
       { 12, 18, 20 },
       { 14, 17, 24 },
       { 12, 15, 16 },
       { 14, 24, 26 },
       { 23 },
       { 21 },
       { 17, 18, 21 },
       { 17, 24, 25 },
       { 19, 28 },
       { 23, 25, 27 },
       { 20, 23 },
       { 26, 27 },
       { 25 },
       { 26, 28 },
       { 29, 30 },
       { 28 },
       { 30 },
       { 29, 30 },
       { 29 },
       {  },
       {  },
       {  } ];
